p cnf 324 938
a 313 314 315 316 317 318 319 320 321 322 323 0
e 1 2 3 4 5 6 7 8 9 10 11 12 13 14 15 16 17 18 19 20 21 22 23 24 25 26 27 28 29 30 31 32 33 34 35 36 37 38 39 40 41 42 43 44 45 46 47 48 49 50 51 52 53 54 55 56 57 58 59 60 61 62 63 64 65 66 67 68 69 70 71 72 73 74 75 76 77 78 79 80 81 82 83 84 85 86 87 88 89 90 91 92 93 94 95 96 97 98 99 100 101 102 103 104 105 106 107 108 109 110 111 112 113 114 115 116 117 118 119 120 121 122 123 124 125 126 127 128 129 130 131 132 133 134 135 136 137 138 139 140 141 142 143 144 145 146 147 148 149 150 151 152 153 154 155 156 157 158 159 160 161 162 163 164 165 166 167 168 169 170 171 172 173 174 175 176 177 178 179 180 181 182 183 184 185 186 187 188 189 190 191 192 193 194 195 196 197 198 199 200 201 202 203 204 205 206 207 208 209 210 211 212 213 214 215 216 217 218 219 220 221 222 223 224 225 226 227 228 229 230 231 232 233 234 235 236 237 238 239 240 241 242 243 244 245 246 247 248 249 250 251 252 253 254 255 256 257 258 259 260 261 262 263 264 265 266 267 268 269 270 271 272 273 274 275 276 277 278 279 280 281 282 283 284 285 286 287 288 289 290 291 292 293 294 295 296 297 298 299 300 301 302 303 304 305 306 307 308 309 310 311 312 324 0
-319 -320 1 0
319 -1 0
320 -1 0
-323 1 2 0
323 -2 0
-1 -2 0
315 320 3 0
-315 -3 0
-320 -3 0
317 -320 4 0
-317 -4 0
320 -4 0
3 4 5 0
-3 -5 0
-4 -5 0
-316 5 6 0
316 -6 0
-5 -6 0
319 320 7 0
-319 -7 0
-320 -7 0
-317 -320 8 0
317 -8 0
320 -8 0
-315 320 9 0
315 -9 0
-320 -9 0
8 9 10 0
-8 -10 0
-9 -10 0
316 10 11 0
-316 -11 0
-10 -11 0
7 11 12 0
-7 -12 0
-11 -12 0
6 -12 13 0
-6 -13 0
12 -13 0
322 323 14 0
-322 -14 0
-323 -14 0
321 -14 15 0
-321 -15 0
14 -15 0
13 -15 16 0
-13 -16 0
15 -16 0
2 16 17 0
-2 -17 0
-16 -17 0
-314 315 18 0
314 -18 0
-315 -18 0
314 -315 19 0
-314 -19 0
315 -19 0
18 19 20 0
-18 -20 0
-19 -20 0
-318 -20 21 0
318 -21 0
20 -21 0
-314 -317 22 0
314 -22 0
317 -22 0
-313 -22 23 0
313 -23 0
22 -23 0
313 22 24 0
-313 -24 0
-22 -24 0
23 24 25 0
-23 -25 0
-24 -25 0
318 25 26 0
-318 -26 0
-25 -26 0
21 26 27 0
-21 -27 0
-26 -27 0
-16 -27 28 0
16 -28 0
27 -28 0
320 28 29 0
-320 -29 0
-28 -29 0
319 -29 30 0
-319 -30 0
29 -30 0
17 30 31 0
-17 -31 0
-30 -31 0
-317 318 32 0
317 -32 0
-318 -32 0
317 -318 33 0
-317 -33 0
318 -33 0
32 33 34 0
-32 -34 0
-33 -34 0
323 34 35 0
-323 -35 0
-34 -35 0
322 -35 36 0
-322 -36 0
35 -36 0
-321 -36 37 0
321 -37 0
36 -37 0
319 323 38 0
-319 -38 0
-323 -38 0
-318 -38 39 0
318 -39 0
38 -39 0
318 323 40 0
-318 -40 0
-323 -40 0
-321 -323 41 0
321 -41 0
323 -41 0
40 41 42 0
-40 -42 0
-41 -42 0
-319 42 43 0
319 -43 0
-42 -43 0
39 43 44 0
-39 -44 0
-43 -44 0
-322 44 45 0
322 -45 0
-44 -45 0
37 45 46 0
-37 -46 0
-45 -46 0
31 -46 47 0
-31 -47 0
46 -47 0
-315 -317 48 0
315 -48 0
317 -48 0
314 48 49 0
-314 -49 0
-48 -49 0
-314 -315 50 0
314 -50 0
315 -50 0
-313 -50 51 0
313 -51 0
50 -51 0
313 315 52 0
-313 -52 0
-315 -52 0
51 52 53 0
-51 -53 0
-52 -53 0
-317 53 54 0
317 -54 0
-53 -54 0
49 54 55 0
-49 -55 0
-54 -55 0
318 55 56 0
-318 -56 0
-55 -56 0
-315 -316 57 0
315 -57 0
316 -57 0
-314 -57 58 0
314 -58 0
57 -58 0
316 50 59 0
-316 -59 0
-50 -59 0
58 59 60 0
-58 -60 0
-59 -60 0
-318 60 61 0
318 -61 0
-60 -61 0
56 61 62 0
-56 -62 0
-61 -62 0
-7 -62 63 0
7 -63 0
62 -63 0
-316 -32 64 0
316 -64 0
32 -64 0
-316 -317 65 0
316 -65 0
317 -65 0
-318 65 66 0
318 -66 0
-65 -66 0
64 66 67 0
-64 -67 0
-66 -67 0
-320 67 68 0
320 -68 0
-67 -68 0
-316 317 69 0
316 -69 0
-317 -69 0
-315 -69 70 0
315 -70 0
69 -70 0
-317 57 71 0
317 -71 0
-57 -71 0
70 71 72 0
-70 -72 0
-71 -72 0
320 72 73 0
-320 -73 0
-72 -73 0
-319 -73 74 0
319 -74 0
73 -74 0
68 74 75 0
-68 -75 0
-74 -75 0
63 -75 76 0
-63 -76 0
75 -76 0
-15 76 77 0
15 -77 0
-76 -77 0
-318 319 78 0
318 -78 0
-319 -78 0
-317 -78 79 0
317 -79 0
78 -79 0
-317 -318 80 0
317 -80 0
318 -80 0
-319 80 81 0
319 -81 0
-80 -81 0
79 81 82 0
-79 -82 0
-81 -82 0
322 82 83 0
-322 -83 0
-82 -83 0
-321 -83 84 0
321 -84 0
83 -84 0
-318 -319 85 0
318 -85 0
319 -85 0
320 -85 86 0
-320 -86 0
85 -86 0
-320 85 87 0
320 -87 0
-85 -87 0
86 87 88 0
-86 -88 0
-87 -88 0
-322 88 89 0
322 -89 0
-88 -89 0
84 89 90 0
-84 -90 0
-89 -90 0
323 -90 91 0
-323 -91 0
90 -91 0
-321 322 92 0
321 -92 0
-322 -92 0
-320 -92 93 0
320 -93 0
92 -93 0
-319 -93 94 0
319 -94 0
93 -94 0
321 1 95 0
-321 -95 0
-1 -95 0
94 95 96 0
-94 -96 0
-95 -96 0
-323 96 97 0
323 -97 0
-96 -97 0
91 97 98 0
-91 -98 0
-97 -98 0
77 98 99 0
-77 -99 0
-98 -99 0
-317 -85 100 0
317 -100 0
85 -100 0
-321 100 101 0
321 -101 0
-100 -101 0
320 -101 102 0
-320 -102 0
101 -102 0
-316 -80 103 0
316 -103 0
80 -103 0
321 103 104 0
-321 -104 0
-103 -104 0
319 -104 105 0
-319 -105 0
104 -105 0
316 321 106 0
-316 -106 0
-321 -106 0
-319 106 107 0
319 -107 0
-106 -107 0
-318 -107 108 0
318 -108 0
107 -108 0
-317 -108 109 0
317 -109 0
108 -109 0
105 109 110 0
-105 -110 0
-109 -110 0
-320 110 111 0
320 -111 0
-110 -111 0
102 111 112 0
-102 -112 0
-111 -112 0
323 -112 113 0
-323 -113 0
112 -113 0
322 -113 114 0
-322 -114 0
113 -114 0
-313 -314 115 0
313 -115 0
314 -115 0
-317 115 116 0
317 -116 0
-115 -116 0
319 116 117 0
-319 -117 0
-116 -117 0
318 -117 118 0
-318 -118 0
117 -118 0
-315 -118 119 0
315 -119 0
118 -119 0
80 119 120 0
-80 -120 0
-119 -120 0
316 120 121 0
-316 -121 0
-120 -121 0
-317 319 122 0
317 -122 0
-319 -122 0
314 -122 123 0
-314 -123 0
122 -123 0
317 -319 124 0
-317 -124 0
319 -124 0
123 124 125 0
-123 -125 0
-124 -125 0
-318 125 126 0
318 -126 0
-125 -126 0
318 319 127 0
-318 -127 0
-319 -127 0
317 -127 128 0
-317 -128 0
127 -128 0
317 319 129 0
-317 -129 0
-319 -129 0
-314 -129 130 0
314 -130 0
129 -130 0
318 -319 131 0
-318 -131 0
319 -131 0
-317 -131 132 0
317 -132 0
131 -132 0
130 132 133 0
-130 -133 0
-132 -133 0
-316 133 134 0
316 -134 0
-133 -134 0
128 134 135 0
-128 -135 0
-134 -135 0
319 115 136 0
-319 -136 0
-115 -136 0
318 -136 137 0
-318 -137 0
136 -137 0
-317 -137 138 0
317 -138 0
137 -138 0
-315 138 139 0
315 -139 0
-138 -139 0
135 -139 140 0
-135 -140 0
139 -140 0
126 140 141 0
-126 -141 0
-140 -141 0
-316 -122 142 0
316 -142 0
122 -142 0
85 142 143 0
-85 -143 0
-142 -143 0
139 143 144 0
-139 -144 0
-143 -144 0
-141 144 145 0
141 -145 0
-144 -145 0
121 -145 146 0
-121 -146 0
145 -146 0
321 -146 147 0
-321 -147 0
146 -147 0
320 -147 148 0
-320 -148 0
147 -148 0
-114 148 149 0
114 -149 0
-148 -149 0
-320 -321 150 0
320 -150 0
321 -150 0
-319 -150 151 0
319 -151 0
150 -151 0
322 151 152 0
-322 -152 0
-151 -152 0
-323 152 153 0
323 -153 0
-152 -153 0
-320 321 154 0
320 -154 0
-321 -154 0
-319 -154 155 0
319 -155 0
154 -155 0
-318 -155 156 0
318 -156 0
155 -156 0
-318 -1 157 0
318 -157 0
1 -157 0
-321 157 158 0
321 -158 0
-157 -158 0
156 158 159 0
-156 -159 0
-158 -159 0
-322 159 160 0
322 -160 0
-159 -160 0
153 160 161 0
-153 -161 0
-160 -161 0
149 -161 162 0
-149 -162 0
161 -162 0
315 -80 163 0
-315 -163 0
80 -163 0
-151 -163 164 0
151 -164 0
163 -164 0
320 321 165 0
-320 -165 0
-321 -165 0
319 -165 166 0
-319 -166 0
165 -166 0
317 318 167 0
-317 -167 0
-318 -167 0
-166 -167 168 0
166 -168 0
167 -168 0
164 168 169 0
-164 -169 0
-168 -169 0
323 169 170 0
-323 -170 0
-169 -170 0
322 -170 171 0
-322 -171 0
170 -171 0
316 -171 172 0
-316 -172 0
171 -172 0
321 322 173 0
-321 -173 0
-322 -173 0
319 -173 174 0
-319 -174 0
173 -174 0
-321 -322 175 0
321 -175 0
322 -175 0
-319 -175 176 0
319 -176 0
175 -176 0
-318 -176 177 0
318 -177 0
176 -177 0
173 177 178 0
-173 -178 0
-177 -178 0
-320 178 179 0
320 -179 0
-178 -179 0
174 179 180 0
-174 -180 0
-179 -180 0
-315 -150 181 0
315 -181 0
150 -181 0
318 -165 182 0
-318 -182 0
165 -182 0
181 182 183 0
-181 -183 0
-182 -183 0
-315 321 184 0
315 -184 0
-321 -184 0
320 184 185 0
-320 -185 0
-184 -185 0
-316 185 186 0
316 -186 0
-185 -186 0
-183 186 187 0
183 -187 0
-186 -187 0
-313 -58 188 0
313 -188 0
58 -188 0
319 188 189 0
-319 -189 0
-188 -189 0
318 189 190 0
-318 -190 0
-189 -190 0
314 -318 191 0
-314 -191 0
318 -191 0
320 191 192 0
-320 -192 0
-191 -192 0
319 192 193 0
-319 -193 0
-192 -193 0
190 193 194 0
-190 -194 0
-193 -194 0
187 -194 195 0
-187 -195 0
194 -195 0
-317 -195 196 0
317 -196 0
195 -196 0
322 196 197 0
-322 -197 0
-196 -197 0
-180 197 198 0
180 -198 0
-197 -198 0
180 196 199 0
-180 -199 0
-196 -199 0
322 -199 200 0
-322 -200 0
199 -200 0
198 200 201 0
-198 -201 0
-200 -201 0
323 201 202 0
-323 -202 0
-201 -202 0
318 115 203 0
-318 -203 0
-115 -203 0
321 203 204 0
-321 -204 0
-203 -204 0
320 -204 205 0
-320 -205 0
204 -205 0
150 165 206 0
-150 -206 0
-165 -206 0
-319 206 207 0
319 -207 0
-206 -207 0
205 207 208 0
-205 -208 0
-207 -208 0
316 -321 209 0
-316 -209 0
321 -209 0
127 209 210 0
-127 -210 0
-209 -210 0
315 210 211 0
-315 -211 0
-210 -211 0
-315 -65 212 0
315 -212 0
65 -212 0
321 -85 213 0
-321 -213 0
85 -213 0
-212 -213 214 0
212 -214 0
213 -214 0
316 319 215 0
-316 -215 0
-319 -215 0
321 215 216 0
-321 -216 0
-215 -216 0
318 216 217 0
-318 -217 0
-216 -217 0
214 217 218 0
-214 -218 0
-217 -218 0
321 127 219 0
-321 -219 0
-127 -219 0
317 219 220 0
-317 -220 0
-219 -220 0
-218 220 221 0
218 -221 0
-220 -221 0
211 -221 222 0
-211 -222 0
221 -222 0
208 -222 223 0
-208 -223 0
222 -223 0
323 223 224 0
-323 -224 0
-223 -224 0
322 -224 225 0
-322 -225 0
224 -225 0
-57 -80 226 0
57 -226 0
80 -226 0
-319 -226 227 0
319 -227 0
226 -227 0
-15 227 228 0
15 -228 0
-227 -228 0
320 -228 229 0
-320 -229 0
228 -229 0
-313 -47 230 0
313 -230 0
47 -230 0
313 47 231 0
-313 -231 0
-47 -231 0
230 231 232 0
-230 -232 0
-231 -232 0
99 230 233 0
-99 -233 0
-230 -233 0
-99 -230 234 0
99 -234 0
230 -234 0
233 234 235 0
-233 -235 0
-234 -235 0
-313 -235 236 0
313 -236 0
235 -236 0
313 235 237 0
-313 -237 0
-235 -237 0
236 237 238 0
-236 -238 0
-237 -238 0
-313 -99 239 0
313 -239 0
99 -239 0
313 99 240 0
-313 -240 0
-99 -240 0
-230 240 241 0
230 -241 0
-240 -241 0
230 -239 242 0
-230 -242 0
239 -242 0
241 242 243 0
-241 -243 0
-242 -243 0
162 -243 244 0
-162 -244 0
243 -244 0
-162 243 245 0
162 -245 0
-243 -245 0
244 245 246 0
-244 -246 0
-245 -246 0
162 -246 247 0
-162 -247 0
246 -247 0
-162 246 248 0
162 -248 0
-246 -248 0
247 248 249 0
-247 -249 0
-248 -249 0
172 -243 250 0
-172 -250 0
243 -250 0
-172 243 251 0
172 -251 0
-243 -251 0
250 251 252 0
-250 -252 0
-251 -252 0
172 -252 253 0
-172 -253 0
252 -253 0
-172 252 254 0
172 -254 0
-252 -254 0
253 254 255 0
-253 -255 0
-254 -255 0
202 -243 256 0
-202 -256 0
243 -256 0
-202 243 257 0
202 -257 0
-243 -257 0
256 257 258 0
-256 -258 0
-257 -258 0
202 -258 259 0
-202 -259 0
258 -259 0
-202 258 260 0
202 -260 0
-258 -260 0
259 260 261 0
-259 -261 0
-260 -261 0
225 -243 262 0
-225 -262 0
243 -262 0
-225 243 263 0
225 -263 0
-243 -263 0
262 263 264 0
-262 -264 0
-263 -264 0
225 -264 265 0
-225 -265 0
264 -265 0
-225 264 266 0
225 -266 0
-264 -266 0
265 266 267 0
-265 -267 0
-266 -267 0
229 -243 268 0
-229 -268 0
243 -268 0
-229 243 269 0
229 -269 0
-243 -269 0
268 269 270 0
-268 -270 0
-269 -270 0
229 -270 271 0
-229 -271 0
270 -271 0
-229 270 272 0
229 -272 0
-270 -272 0
271 272 273 0
-271 -273 0
-272 -273 0
-232 -238 274 0
232 -274 0
238 -274 0
-249 274 275 0
249 -275 0
-274 -275 0
249 -274 276 0
-249 -276 0
274 -276 0
275 276 277 0
-275 -277 0
-276 -277 0
-249 -274 278 0
249 -278 0
274 -278 0
-255 278 279 0
255 -279 0
-278 -279 0
255 -278 280 0
-255 -280 0
278 -280 0
279 280 281 0
-279 -281 0
-280 -281 0
-255 -278 282 0
255 -282 0
278 -282 0
-261 282 283 0
261 -283 0
-282 -283 0
261 -282 284 0
-261 -284 0
282 -284 0
283 284 285 0
-283 -285 0
-284 -285 0
-261 -282 286 0
261 -286 0
282 -286 0
-267 286 287 0
267 -287 0
-286 -287 0
267 -286 288 0
-267 -288 0
286 -288 0
287 288 289 0
-287 -289 0
-288 -289 0
-267 -286 290 0
267 -290 0
286 -290 0
-273 290 291 0
273 -291 0
-290 -291 0
273 -290 292 0
-273 -292 0
290 -292 0
291 292 293 0
-291 -293 0
-292 -293 0
-243 249 294 0
243 -294 0
-249 -294 0
243 277 295 0
-243 -295 0
-277 -295 0
294 295 296 0
-294 -296 0
-295 -296 0
-243 255 297 0
243 -297 0
-255 -297 0
243 281 298 0
-243 -298 0
-281 -298 0
297 298 299 0
-297 -299 0
-298 -299 0
-243 261 300 0
243 -300 0
-261 -300 0
243 285 301 0
-243 -301 0
-285 -301 0
300 301 302 0
-300 -302 0
-301 -302 0
-243 267 303 0
243 -303 0
-267 -303 0
243 289 304 0
-243 -304 0
-289 -304 0
303 304 305 0
-303 -305 0
-304 -305 0
-243 273 306 0
243 -306 0
-273 -306 0
243 293 307 0
-243 -307 0
-293 -307 0
306 307 308 0
-306 -308 0
-307 -308 0
-296 -299 309 0
296 -309 0
299 -309 0
-302 -309 310 0
302 -310 0
309 -310 0
-305 -310 311 0
305 -311 0
310 -311 0
-308 -311 312 0
308 -312 0
311 -312 0
324 0
312 0
